# Solution for model cur_assignment
# Objective value = 6.4629738394669528e+02
Assign[0,0] 1
Assign[0,1] 0
Assign[0,2] 0
Assign[0,3] 0
Assign[1,0] 1
Assign[1,1] 0
Assign[1,2] 0
Assign[1,3] 0
Assign[2,0] 0
Assign[2,1] 0
Assign[2,2] 1
Assign[2,3] 0
Assign[3,0] 0
Assign[3,1] 0
Assign[3,2] 1
Assign[3,3] 0
Assign[4,0] 0
Assign[4,1] 0
Assign[4,2] 1
Assign[4,3] 0
Assign[5,0] 0
Assign[5,1] 0
Assign[5,2] 1
Assign[5,3] 0
Assign[6,0] 0
Assign[6,1] 0
Assign[6,2] 1
Assign[6,3] 0
Assign[7,0] 0
Assign[7,1] 0
Assign[7,2] 1
Assign[7,3] 0
Assign[8,0] 0
Assign[8,1] 0
Assign[8,2] 1
Assign[8,3] 0
Assign[9,0] 0
Assign[9,1] 0
Assign[9,2] 1
Assign[9,3] 0
Assign[10,0] 0
Assign[10,1] 0
Assign[10,2] 1
Assign[10,3] 0
Assign[11,0] 0
Assign[11,1] 0
Assign[11,2] 1
Assign[11,3] 0
Assign[12,0] 1
Assign[12,1] 0
Assign[12,2] 0
Assign[12,3] 0
Assign[13,0] 1
Assign[13,1] 0
Assign[13,2] 0
Assign[13,3] 0
Assign[14,0] 0
Assign[14,1] 0
Assign[14,2] 1
Assign[14,3] 0
Assign[15,0] 0
Assign[15,1] 0
Assign[15,2] 1
Assign[15,3] 0
Assign[16,0] 1
Assign[16,1] 0
Assign[16,2] 0
Assign[16,3] 0
Assign[17,0] 1
Assign[17,1] 0
Assign[17,2] 0
Assign[17,3] 0
Assign[18,0] 0
Assign[18,1] 0
Assign[18,2] 1
Assign[18,3] 0
Assign[19,0] 0
Assign[19,1] 0
Assign[19,2] 1
Assign[19,3] 0
Assign[20,0] 0
Assign[20,1] 0
Assign[20,2] 1
Assign[20,3] 0
Assign[21,0] 0
Assign[21,1] 0
Assign[21,2] 1
Assign[21,3] 0
Assign[22,0] 0
Assign[22,1] 0
Assign[22,2] 1
Assign[22,3] 0
Assign[23,0] 1
Assign[23,1] 0
Assign[23,2] 0
Assign[23,3] 0
Assign[24,0] 1
Assign[24,1] 0
Assign[24,2] 0
Assign[24,3] 0
Assign[25,0] 0
Assign[25,1] 0
Assign[25,2] 1
Assign[25,3] 0
Assign[26,0] 0
Assign[26,1] 0
Assign[26,2] 1
Assign[26,3] 0
Assign[27,0] 1
Assign[27,1] 0
Assign[27,2] 0
Assign[27,3] 0
Assign[28,0] 1
Assign[28,1] 0
Assign[28,2] 0
Assign[28,3] 0
Assign[29,0] 1
Assign[29,1] 0
Assign[29,2] 0
Assign[29,3] 0
Assign[30,0] 1
Assign[30,1] 0
Assign[30,2] 0
Assign[30,3] 0
Assign[31,0] 1
Assign[31,1] 0
Assign[31,2] 0
Assign[31,3] 0
Assign[32,0] 1
Assign[32,1] 0
Assign[32,2] 0
Assign[32,3] 0
Assign[33,0] 0
Assign[33,1] 0
Assign[33,2] 1
Assign[33,3] 0
Assign[34,0] 0
Assign[34,1] 0
Assign[34,2] 1
Assign[34,3] 0
Assign[35,0] 1
Assign[35,1] 0
Assign[35,2] 0
Assign[35,3] 0
Assign[36,0] 1
Assign[36,1] 0
Assign[36,2] 0
Assign[36,3] 0
Assign[37,0] 1
Assign[37,1] 0
Assign[37,2] 0
Assign[37,3] 0
Assign[38,0] 1
Assign[38,1] 0
Assign[38,2] 0
Assign[38,3] 0
Assign[39,0] 1
Assign[39,1] 0
Assign[39,2] 0
Assign[39,3] 0
Assign[40,0] 1
Assign[40,1] 0
Assign[40,2] 0
Assign[40,3] 0
Assign[41,0] 1
Assign[41,1] 0
Assign[41,2] 0
Assign[41,3] 0
Assign[42,0] 1
Assign[42,1] 0
Assign[42,2] 0
Assign[42,3] 0
Assign[43,0] 1
Assign[43,1] 0
Assign[43,2] 0
Assign[43,3] 0
Assign[44,0] 1
Assign[44,1] 0
Assign[44,2] 0
Assign[44,3] 0
Assign[45,0] 1
Assign[45,1] 0
Assign[45,2] 0
Assign[45,3] 0
Assign[46,0] 1
Assign[46,1] 0
Assign[46,2] 0
Assign[46,3] 0
Assign[47,0] 1
Assign[47,1] 0
Assign[47,2] 0
Assign[47,3] 0
Assign[48,0] 1
Assign[48,1] 0
Assign[48,2] 0
Assign[48,3] 0
Assign[49,0] 1
Assign[49,1] 0
Assign[49,2] 0
Assign[49,3] 0
Assign[50,0] 0
Assign[50,1] 0
Assign[50,2] 0
Assign[50,3] 1
Assign[51,0] 0
Assign[51,1] 0
Assign[51,2] 0
Assign[51,3] 1
Assign[52,0] 0
Assign[52,1] 0
Assign[52,2] 0
Assign[52,3] 1
Assign[53,0] 1
Assign[53,1] 0
Assign[53,2] 0
Assign[53,3] 0
Assign[54,0] 0
Assign[54,1] 0
Assign[54,2] 0
Assign[54,3] 1
Assign[55,0] 0
Assign[55,1] 0
Assign[55,2] 0
Assign[55,3] 1
Assign[56,0] 0
Assign[56,1] 0
Assign[56,2] 0
Assign[56,3] 1
Assign[57,0] 0
Assign[57,1] 0
Assign[57,2] 1
Assign[57,3] 0
Assign[58,0] 0
Assign[58,1] 0
Assign[58,2] 1
Assign[58,3] 0
Assign[59,0] 1
Assign[59,1] 0
Assign[59,2] 0
Assign[59,3] 0
Assign[60,0] 1
Assign[60,1] 0
Assign[60,2] 0
Assign[60,3] 0
Assign[61,0] 0
Assign[61,1] 0
Assign[61,2] 1
Assign[61,3] 0
Assign[62,0] 1
Assign[62,1] 0
Assign[62,2] 0
Assign[62,3] 0
Assign[63,0] 1
Assign[63,1] 0
Assign[63,2] 0
Assign[63,3] 0
Assign[64,0] 1
Assign[64,1] 0
Assign[64,2] 0
Assign[64,3] 0
Assign[65,0] 0
Assign[65,1] 0
Assign[65,2] 0
Assign[65,3] 1
Assign[66,0] 0
Assign[66,1] 0
Assign[66,2] 0
Assign[66,3] 1
Assign[67,0] 1
Assign[67,1] 0
Assign[67,2] 0
Assign[67,3] 0
Assign[68,0] 1
Assign[68,1] 0
Assign[68,2] 0
Assign[68,3] 0
Assign[69,0] 1
Assign[69,1] 0
Assign[69,2] 0
Assign[69,3] 0
Assign[70,0] 1
Assign[70,1] 0
Assign[70,2] 0
Assign[70,3] 0
Assign[71,0] 1
Assign[71,1] 0
Assign[71,2] 0
Assign[71,3] 0
Assign[72,0] 0
Assign[72,1] 0
Assign[72,2] 1
Assign[72,3] 0
Assign[73,0] 0
Assign[73,1] 0
Assign[73,2] 1
Assign[73,3] 0
Assign[74,0] 1
Assign[74,1] 0
Assign[74,2] 0
Assign[74,3] 0
Assign[75,0] 1
Assign[75,1] 0
Assign[75,2] 0
Assign[75,3] 0
Assign[76,0] 1
Assign[76,1] 0
Assign[76,2] 0
Assign[76,3] 0
Assign[77,0] 0
Assign[77,1] 0
Assign[77,2] 0
Assign[77,3] 1
Assign[78,0] 0
Assign[78,1] 0
Assign[78,2] 0
Assign[78,3] 1
Assign[79,0] 0
Assign[79,1] 0
Assign[79,2] 0
Assign[79,3] 1
Assign[80,0] 0
Assign[80,1] 0
Assign[80,2] 0
Assign[80,3] 1
Assign[81,0] 0
Assign[81,1] 0
Assign[81,2] 1
Assign[81,3] 0
Assign[82,0] 0
Assign[82,1] 0
Assign[82,2] 1
Assign[82,3] 0
Assign[83,0] 1
Assign[83,1] 0
Assign[83,2] 0
Assign[83,3] 0
Assign[84,0] 1
Assign[84,1] 0
Assign[84,2] 0
Assign[84,3] 0
Assign[85,0] 1
Assign[85,1] 0
Assign[85,2] 0
Assign[85,3] 0
Assign[86,0] 1
Assign[86,1] 0
Assign[86,2] 0
Assign[86,3] 0
Assign[87,0] 0
Assign[87,1] 0
Assign[87,2] 0
Assign[87,3] 1
Assign[88,0] 0
Assign[88,1] 0
Assign[88,2] 0
Assign[88,3] 1
Assign[89,0] 0
Assign[89,1] 0
Assign[89,2] 1
Assign[89,3] 0
Assign[90,0] 0
Assign[90,1] 0
Assign[90,2] 0
Assign[90,3] 1
Assign[91,0] 0
Assign[91,1] 0
Assign[91,2] 0
Assign[91,3] 1
Assign[92,0] 0
Assign[92,1] 0
Assign[92,2] 0
Assign[92,3] 1
Assign[93,0] 0
Assign[93,1] 0
Assign[93,2] 0
Assign[93,3] 1
Assign[94,0] 0
Assign[94,1] 0
Assign[94,2] 0
Assign[94,3] 1
Assign[95,0] 0
Assign[95,1] 0
Assign[95,2] 0
Assign[95,3] 1
Assign[96,0] 1
Assign[96,1] 0
Assign[96,2] 0
Assign[96,3] 0
Assign[97,0] 1
Assign[97,1] 0
Assign[97,2] 0
Assign[97,3] 0
Assign[98,0] 0
Assign[98,1] 0
Assign[98,2] 1
Assign[98,3] 0
Assign[99,0] 0
Assign[99,1] 0
Assign[99,2] 1
Assign[99,3] 0
Assign[100,0] 0
Assign[100,1] 0
Assign[100,2] 1
Assign[100,3] 0
Assign[101,0] 1
Assign[101,1] 0
Assign[101,2] 0
Assign[101,3] 0
Assign[102,0] 1
Assign[102,1] 0
Assign[102,2] 0
Assign[102,3] 0
Assign[103,0] 0
Assign[103,1] 0
Assign[103,2] 0
Assign[103,3] 1
Assign[104,0] 0
Assign[104,1] 0
Assign[104,2] 1
Assign[104,3] 0
Assign[105,0] 1
Assign[105,1] 0
Assign[105,2] 0
Assign[105,3] 0
Assign[106,0] 1
Assign[106,1] 0
Assign[106,2] 0
Assign[106,3] 0
Assign[107,0] 1
Assign[107,1] 0
Assign[107,2] 0
Assign[107,3] 0
Assign[108,0] 0
Assign[108,1] 0
Assign[108,2] 1
Assign[108,3] 0
Assign[109,0] 0
Assign[109,1] 0
Assign[109,2] 1
Assign[109,3] 0
Assign[110,0] 1
Assign[110,1] 0
Assign[110,2] 0
Assign[110,3] 0
Assign[111,0] 1
Assign[111,1] 0
Assign[111,2] 0
Assign[111,3] 0
Assign[112,0] 1
Assign[112,1] 0
Assign[112,2] 0
Assign[112,3] 0
Assign[113,0] 1
Assign[113,1] 0
Assign[113,2] 0
Assign[113,3] 0
Assign[114,0] 1
Assign[114,1] 0
Assign[114,2] 0
Assign[114,3] 0
Assign[115,0] 1
Assign[115,1] 0
Assign[115,2] 0
Assign[115,3] 0
Assign[116,0] 1
Assign[116,1] 0
Assign[116,2] 0
Assign[116,3] 0
Assign[117,0] 1
Assign[117,1] 0
Assign[117,2] 0
Assign[117,3] 0
Assign[118,0] 1
Assign[118,1] 0
Assign[118,2] 0
Assign[118,3] 0
Assign[119,0] 1
Assign[119,1] 0
Assign[119,2] 0
Assign[119,3] 0
Assign[120,0] 1
Assign[120,1] 0
Assign[120,2] 0
Assign[120,3] 0
Assign[121,0] 1
Assign[121,1] 0
Assign[121,2] 0
Assign[121,3] 0
Assign[122,0] 1
Assign[122,1] 0
Assign[122,2] 0
Assign[122,3] 0
Assign[123,0] 0
Assign[123,1] 0
Assign[123,2] 0
Assign[123,3] 1
Assign[124,0] 0
Assign[124,1] 0
Assign[124,2] 0
Assign[124,3] 1
Assign[125,0] 0
Assign[125,1] 0
Assign[125,2] 0
Assign[125,3] 1
Assign[126,0] 0
Assign[126,1] 0
Assign[126,2] 0
Assign[126,3] 1
Assign[127,0] 1
Assign[127,1] 0
Assign[127,2] 0
Assign[127,3] 0
Assign[128,0] 0
Assign[128,1] 0
Assign[128,2] 1
Assign[128,3] 0
Assign[129,0] 0
Assign[129,1] 0
Assign[129,2] 1
Assign[129,3] 0
Assign[130,0] 0
Assign[130,1] 0
Assign[130,2] 0
Assign[130,3] 1
Assign[131,0] 0
Assign[131,1] 0
Assign[131,2] 0
Assign[131,3] 1
Assign[132,0] 1
Assign[132,1] 0
Assign[132,2] 0
Assign[132,3] 0
Assign[133,0] 0
Assign[133,1] 0
Assign[133,2] 0
Assign[133,3] 1
Assign[134,0] 0
Assign[134,1] 0
Assign[134,2] 0
Assign[134,3] 1
Assign[135,0] 1
Assign[135,1] 0
Assign[135,2] 0
Assign[135,3] 0
Assign[136,0] 0
Assign[136,1] 0
Assign[136,2] 1
Assign[136,3] 0
Assign[137,0] 1
Assign[137,1] 0
Assign[137,2] 0
Assign[137,3] 0
Assign[138,0] 1
Assign[138,1] 0
Assign[138,2] 0
Assign[138,3] 0
Assign[139,0] 0
Assign[139,1] 0
Assign[139,2] 1
Assign[139,3] 0
Assign[140,0] 1
Assign[140,1] 0
Assign[140,2] 0
Assign[140,3] 0
Assign[141,0] 1
Assign[141,1] 0
Assign[141,2] 0
Assign[141,3] 0
Assign[142,0] 1
Assign[142,1] 0
Assign[142,2] 0
Assign[142,3] 0
Assign[143,0] 1
Assign[143,1] 0
Assign[143,2] 0
Assign[143,3] 0
Assign[144,0] 1
Assign[144,1] 0
Assign[144,2] 0
Assign[144,3] 0
Assign[145,0] 1
Assign[145,1] 0
Assign[145,2] 0
Assign[145,3] 0
Assign[146,0] 1
Assign[146,1] 0
Assign[146,2] 0
Assign[146,3] 0
Assign[147,0] 1
Assign[147,1] 0
Assign[147,2] 0
Assign[147,3] 0
Assign[148,0] 1
Assign[148,1] 0
Assign[148,2] 0
Assign[148,3] 0
Assign[149,0] 0
Assign[149,1] 0
Assign[149,2] 0
Assign[149,3] 1
Assign[150,0] 1
Assign[150,1] 0
Assign[150,2] 0
Assign[150,3] 0
Assign[151,0] 1
Assign[151,1] 0
Assign[151,2] 0
Assign[151,3] 0
Assign[152,0] 0
Assign[152,1] 0
Assign[152,2] 1
Assign[152,3] 0
Assign[153,0] 0
Assign[153,1] 0
Assign[153,2] 1
Assign[153,3] 0
Assign[154,0] 0
Assign[154,1] 0
Assign[154,2] 1
Assign[154,3] 0
Assign[155,0] 1
Assign[155,1] 0
Assign[155,2] 0
Assign[155,3] 0
Assign[156,0] 0
Assign[156,1] 0
Assign[156,2] 1
Assign[156,3] 0
Assign[157,0] 1
Assign[157,1] 0
Assign[157,2] 0
Assign[157,3] 0
Assign[158,0] 1
Assign[158,1] 0
Assign[158,2] 0
Assign[158,3] 0
Assign[159,0] 0
Assign[159,1] 0
Assign[159,2] 0
Assign[159,3] 1
Assign[160,0] 0
Assign[160,1] 0
Assign[160,2] 0
Assign[160,3] 1
Assign[161,0] 0
Assign[161,1] 0
Assign[161,2] 0
Assign[161,3] 1
Assign[162,0] 1
Assign[162,1] 0
Assign[162,2] 0
Assign[162,3] 0
Assign[163,0] 1
Assign[163,1] 0
Assign[163,2] 0
Assign[163,3] 0
Assign[164,0] 1
Assign[164,1] 0
Assign[164,2] 0
Assign[164,3] 0
Assign[165,0] 1
Assign[165,1] 0
Assign[165,2] 0
Assign[165,3] 0
Assign[166,0] 1
Assign[166,1] 0
Assign[166,2] 0
Assign[166,3] 0
Assign[167,0] 1
Assign[167,1] 0
Assign[167,2] 0
Assign[167,3] 0
Assign[168,0] 0
Assign[168,1] 0
Assign[168,2] 0
Assign[168,3] 1
Assign[169,0] 0
Assign[169,1] 0
Assign[169,2] 0
Assign[169,3] 1
Assign[170,0] 1
Assign[170,1] 0
Assign[170,2] 0
Assign[170,3] 0
Assign[171,0] 1
Assign[171,1] 0
Assign[171,2] 0
Assign[171,3] 0
Assign[172,0] 0
Assign[172,1] 0
Assign[172,2] 1
Assign[172,3] 0
Assign[173,0] 0
Assign[173,1] 0
Assign[173,2] 1
Assign[173,3] 0
Assign[174,0] 1
Assign[174,1] 0
Assign[174,2] 0
Assign[174,3] 0
Assign[175,0] 0
Assign[175,1] 0
Assign[175,2] 1
Assign[175,3] 0
Assign[176,0] 0
Assign[176,1] 0
Assign[176,2] 1
Assign[176,3] 0
Assign[177,0] 0
Assign[177,1] 0
Assign[177,2] 1
Assign[177,3] 0
Assign[178,0] 1
Assign[178,1] 0
Assign[178,2] 0
Assign[178,3] 0
Assign[179,0] 0
Assign[179,1] 0
Assign[179,2] 1
Assign[179,3] 0
Assign[180,0] 1
Assign[180,1] 0
Assign[180,2] 0
Assign[180,3] 0
Assign[181,0] 0
Assign[181,1] 0
Assign[181,2] 1
Assign[181,3] 0
Assign[182,0] 0
Assign[182,1] 0
Assign[182,2] 1
Assign[182,3] 0
Assign[183,0] 0
Assign[183,1] 0
Assign[183,2] 1
Assign[183,3] 0
Assign[184,0] 0
Assign[184,1] 0
Assign[184,2] 1
Assign[184,3] 0
Assign[185,0] 0
Assign[185,1] 0
Assign[185,2] 1
Assign[185,3] 0
Assign[186,0] 1
Assign[186,1] 0
Assign[186,2] 0
Assign[186,3] 0
Assign[187,0] 1
Assign[187,1] 0
Assign[187,2] 0
Assign[187,3] 0
Assign[188,0] 1
Assign[188,1] 0
Assign[188,2] 0
Assign[188,3] 0
Assign[189,0] 1
Assign[189,1] 0
Assign[189,2] 0
Assign[189,3] 0
Assign[190,0] 1
Assign[190,1] 0
Assign[190,2] 0
Assign[190,3] 0
Assign[191,0] 1
Assign[191,1] 0
Assign[191,2] 0
Assign[191,3] 0
Assign[192,0] 1
Assign[192,1] 0
Assign[192,2] 0
Assign[192,3] 0
Assign[193,0] 1
Assign[193,1] 0
Assign[193,2] 0
Assign[193,3] 0
Assign[194,0] 1
Assign[194,1] 0
Assign[194,2] 0
Assign[194,3] 0
Assign[195,0] 1
Assign[195,1] 0
Assign[195,2] 0
Assign[195,3] 0
Assign[196,0] 0
Assign[196,1] 0
Assign[196,2] 0
Assign[196,3] 1
Assign[197,0] 1
Assign[197,1] 0
Assign[197,2] 0
Assign[197,3] 0
Assign[198,0] 0
Assign[198,1] 0
Assign[198,2] 0
Assign[198,3] 1
Assign[199,0] 0
Assign[199,1] 0
Assign[199,2] 0
Assign[199,3] 1
Assign[200,0] 0
Assign[200,1] 0
Assign[200,2] 0
Assign[200,3] 1
Assign[201,0] 0
Assign[201,1] 0
Assign[201,2] 0
Assign[201,3] 1
Assign[202,0] 0
Assign[202,1] 0
Assign[202,2] 1
Assign[202,3] 0
Assign[203,0] 1
Assign[203,1] 0
Assign[203,2] 0
Assign[203,3] 0
Assign[204,0] 0
Assign[204,1] 0
Assign[204,2] 1
Assign[204,3] 0
Assign[205,0] 0
Assign[205,1] 0
Assign[205,2] 1
Assign[205,3] 0
Assign[206,0] 0
Assign[206,1] 0
Assign[206,2] 1
Assign[206,3] 0
Assign[207,0] 1
Assign[207,1] 0
Assign[207,2] 0
Assign[207,3] 0
Assign[208,0] 0
Assign[208,1] 1
Assign[208,2] 0
Assign[208,3] 0
Assign[209,0] 0
Assign[209,1] 1
Assign[209,2] 0
Assign[209,3] 0
Assign[210,0] 1
Assign[210,1] 0
Assign[210,2] 0
Assign[210,3] 0
Assign[211,0] 1
Assign[211,1] 0
Assign[211,2] 0
Assign[211,3] 0
Assign[212,0] 1
Assign[212,1] 0
Assign[212,2] 0
Assign[212,3] 0
Assign[213,0] 1
Assign[213,1] 0
Assign[213,2] 0
Assign[213,3] 0
Assign[214,0] 1
Assign[214,1] 0
Assign[214,2] 0
Assign[214,3] 0
Assign[215,0] 1
Assign[215,1] 0
Assign[215,2] 0
Assign[215,3] 0
Assign[216,0] 1
Assign[216,1] 0
Assign[216,2] 0
Assign[216,3] 0
Assign[217,0] 1
Assign[217,1] 0
Assign[217,2] 0
Assign[217,3] 0
Assign[218,0] 0
Assign[218,1] 0
Assign[218,2] 1
Assign[218,3] 0
Assign[219,0] 1
Assign[219,1] 0
Assign[219,2] 0
Assign[219,3] 0
Assign[220,0] 0
Assign[220,1] 0
Assign[220,2] 1
Assign[220,3] 0
Assign[221,0] 0
Assign[221,1] 0
Assign[221,2] 0
Assign[221,3] 1
Assign[222,0] 0
Assign[222,1] 0
Assign[222,2] 0
Assign[222,3] 1
Assign[223,0] 1
Assign[223,1] 0
Assign[223,2] 0
Assign[223,3] 0
Assign[224,0] 1
Assign[224,1] 0
Assign[224,2] 0
Assign[224,3] 0
Assign[225,0] 1
Assign[225,1] 0
Assign[225,2] 0
Assign[225,3] 0
Assign[226,0] 0
Assign[226,1] 0
Assign[226,2] 0
Assign[226,3] 1
Assign[227,0] 0
Assign[227,1] 0
Assign[227,2] 1
Assign[227,3] 0
Assign[228,0] 1
Assign[228,1] 0
Assign[228,2] 0
Assign[228,3] 0
Assign[229,0] 0
Assign[229,1] 0
Assign[229,2] 0
Assign[229,3] 1
Assign[230,0] 0
Assign[230,1] 0
Assign[230,2] 1
Assign[230,3] 0
Assign[231,0] 0
Assign[231,1] 0
Assign[231,2] 1
Assign[231,3] 0
Assign[232,0] 1
Assign[232,1] 0
Assign[232,2] 0
Assign[232,3] 0
Assign[233,0] 0
Assign[233,1] 0
Assign[233,2] 0
Assign[233,3] 1
Assign[234,0] 0
Assign[234,1] 0
Assign[234,2] 1
Assign[234,3] 0
Assign[235,0] 0
Assign[235,1] 0
Assign[235,2] 1
Assign[235,3] 0
Assign[236,0] 1
Assign[236,1] 0
Assign[236,2] 0
Assign[236,3] 0
Assign[237,0] 1
Assign[237,1] 0
Assign[237,2] 0
Assign[237,3] 0
Assign[238,0] 0
Assign[238,1] 0
Assign[238,2] 0
Assign[238,3] 1
Assign[239,0] 1
Assign[239,1] 0
Assign[239,2] 0
Assign[239,3] 0
Assign[240,0] 1
Assign[240,1] 0
Assign[240,2] 0
Assign[240,3] 0
Assign[241,0] 1
Assign[241,1] 0
Assign[241,2] 0
Assign[241,3] 0
Assign[242,0] 0
Assign[242,1] 0
Assign[242,2] 0
Assign[242,3] 1
Assign[243,0] 0
Assign[243,1] 0
Assign[243,2] 1
Assign[243,3] 0
Assign[244,0] 1
Assign[244,1] 0
Assign[244,2] 0
Assign[244,3] 0
Assign[245,0] 0
Assign[245,1] 0
Assign[245,2] 1
Assign[245,3] 0
